(set-logic QF_LRA)
(declare-fun T1 () Real )
(declare-fun T2 () Real )
(declare-fun T3 () Real )
(declare-fun T4 () Real )
(declare-fun T5 () Real )
(declare-fun T6 () Real )
(declare-fun T7 () Real )
(declare-fun T8 () Real )
(declare-fun Z () Real )
(assert ( and 
(or ( <= ( + T1 62 ) T2 ) ( <= ( + T2 51 ) T1 ) )
(or ( <= ( + T1 64 )  ( + T2 51 ) ) ( <= ( + T2 76 )( + T1 62 ) ) )
(or ( <= ( + T1 117 )  ( + T2 76 ) ) ( <= ( + T2 79 )( + T1 64 ) ) )
(or ( <= ( + T1 213 )  ( + T2 79 ) ) ( <= ( + T2 153 )( + T1 117 ) ) )
(or ( <= ( + T1 312 )  ( + T2 153 ) ) ( <= ( + T2 214 )( + T1 213 ) ) )
(or ( <= ( + T1 324 )  ( + T2 214 ) ) ( <= ( + T2 298 )( + T1 312 ) ) )
(or ( <= ( + T1 62 ) T3 ) ( <= ( + T3 99 ) T1 ) )
(or ( <= ( + T1 64 )  ( + T3 99 ) ) ( <= ( + T3 178 )( + T1 62 ) ) )
(or ( <= ( + T1 117 )  ( + T3 178 ) ) ( <= ( + T3 188 )( + T1 64 ) ) )
(or ( <= ( + T1 213 )  ( + T3 188 ) ) ( <= ( + T3 262 )( + T1 117 ) ) )
(or ( <= ( + T1 312 )  ( + T3 262 ) ) ( <= ( + T3 346 )( + T1 213 ) ) )
(or ( <= ( + T1 324 )  ( + T3 346 ) ) ( <= ( + T3 372 )( + T1 312 ) ) )
(or ( <= ( + T1 62 ) T4 ) ( <= ( + T4 70 ) T1 ) )
(or ( <= ( + T1 64 )  ( + T4 70 ) ) ( <= ( + T4 72 )( + T1 62 ) ) )
(or ( <= ( + T1 117 )  ( + T4 72 ) ) ( <= ( + T4 127 )( + T1 64 ) ) )
(or ( <= ( + T1 213 )  ( + T4 127 ) ) ( <= ( + T4 206 )( + T1 117 ) ) )
(or ( <= ( + T1 312 )  ( + T4 206 ) ) ( <= ( + T4 291 )( + T1 213 ) ) )
(or ( <= ( + T1 324 )  ( + T4 291 ) ) ( <= ( + T4 295 )( + T1 312 ) ) )
(or ( <= ( + T1 62 ) T5 ) ( <= ( + T5 72 ) T1 ) )
(or ( <= ( + T1 64 )  ( + T5 72 ) ) ( <= ( + T5 119 )( + T1 62 ) ) )
(or ( <= ( + T1 117 )  ( + T5 119 ) ) ( <= ( + T5 196 )( + T1 64 ) ) )
(or ( <= ( + T1 213 )  ( + T5 196 ) ) ( <= ( + T5 222 )( + T1 117 ) ) )
(or ( <= ( + T1 312 )  ( + T5 222 ) ) ( <= ( + T5 235 )( + T1 213 ) ) )
(or ( <= ( + T1 324 )  ( + T5 235 ) ) ( <= ( + T5 286 )( + T1 312 ) ) )
(or ( <= ( + T1 62 ) T6 ) ( <= ( + T6 29 ) T1 ) )
(or ( <= ( + T1 64 )  ( + T6 29 ) ) ( <= ( + T6 103 )( + T1 62 ) ) )
(or ( <= ( + T1 117 )  ( + T6 103 ) ) ( <= ( + T6 107 )( + T1 64 ) ) )
(or ( <= ( + T1 213 )  ( + T6 107 ) ) ( <= ( + T6 188 )( + T1 117 ) ) )
(or ( <= ( + T1 312 )  ( + T6 188 ) ) ( <= ( + T6 210 )( + T1 213 ) ) )
(or ( <= ( + T1 324 )  ( + T6 210 ) ) ( <= ( + T6 212 )( + T1 312 ) ) )
(or ( <= ( + T1 62 ) T7 ) ( <= ( + T7 92 ) T1 ) )
(or ( <= ( + T1 64 )  ( + T7 92 ) ) ( <= ( + T7 164 )( + T1 62 ) ) )
(or ( <= ( + T1 117 )  ( + T7 164 ) ) ( <= ( + T7 242 )( + T1 64 ) ) )
(or ( <= ( + T1 213 )  ( + T7 242 ) ) ( <= ( + T7 288 )( + T1 117 ) ) )
(or ( <= ( + T1 312 )  ( + T7 288 ) ) ( <= ( + T7 385 )( + T1 213 ) ) )
(or ( <= ( + T1 324 )  ( + T7 385 ) ) ( <= ( + T7 424 )( + T1 312 ) ) )
(or ( <= ( + T1 62 ) T8 ) ( <= ( + T8 29 ) T1 ) )
(or ( <= ( + T1 64 )  ( + T8 29 ) ) ( <= ( + T8 77 )( + T1 62 ) ) )
(or ( <= ( + T1 117 )  ( + T8 77 ) ) ( <= ( + T8 146 )( + T1 64 ) ) )
(or ( <= ( + T1 213 )  ( + T8 146 ) ) ( <= ( + T8 236 )( + T1 117 ) ) )
(or ( <= ( + T1 312 )  ( + T8 236 ) ) ( <= ( + T8 309 )( + T1 213 ) ) )
(or ( <= ( + T1 324 )  ( + T8 309 ) ) ( <= ( + T8 361 )( + T1 312 ) ) )
(or ( <= ( + T2 51 ) T3 ) ( <= ( + T3 99 ) T2 ) )
(or ( <= ( + T2 76 )  ( + T3 99 ) ) ( <= ( + T3 178 )( + T2 51 ) ) )
(or ( <= ( + T2 79 )  ( + T3 178 ) ) ( <= ( + T3 188 )( + T2 76 ) ) )
(or ( <= ( + T2 153 )  ( + T3 188 ) ) ( <= ( + T3 262 )( + T2 79 ) ) )
(or ( <= ( + T2 214 )  ( + T3 262 ) ) ( <= ( + T3 346 )( + T2 153 ) ) )
(or ( <= ( + T2 298 )  ( + T3 346 ) ) ( <= ( + T3 372 )( + T2 214 ) ) )
(or ( <= ( + T2 51 ) T4 ) ( <= ( + T4 70 ) T2 ) )
(or ( <= ( + T2 76 )  ( + T4 70 ) ) ( <= ( + T4 72 )( + T2 51 ) ) )
(or ( <= ( + T2 79 )  ( + T4 72 ) ) ( <= ( + T4 127 )( + T2 76 ) ) )
(or ( <= ( + T2 153 )  ( + T4 127 ) ) ( <= ( + T4 206 )( + T2 79 ) ) )
(or ( <= ( + T2 214 )  ( + T4 206 ) ) ( <= ( + T4 291 )( + T2 153 ) ) )
(or ( <= ( + T2 298 )  ( + T4 291 ) ) ( <= ( + T4 295 )( + T2 214 ) ) )
(or ( <= ( + T2 51 ) T5 ) ( <= ( + T5 72 ) T2 ) )
(or ( <= ( + T2 76 )  ( + T5 72 ) ) ( <= ( + T5 119 )( + T2 51 ) ) )
(or ( <= ( + T2 79 )  ( + T5 119 ) ) ( <= ( + T5 196 )( + T2 76 ) ) )
(or ( <= ( + T2 153 )  ( + T5 196 ) ) ( <= ( + T5 222 )( + T2 79 ) ) )
(or ( <= ( + T2 214 )  ( + T5 222 ) ) ( <= ( + T5 235 )( + T2 153 ) ) )
(or ( <= ( + T2 298 )  ( + T5 235 ) ) ( <= ( + T5 286 )( + T2 214 ) ) )
(or ( <= ( + T2 51 ) T6 ) ( <= ( + T6 29 ) T2 ) )
(or ( <= ( + T2 76 )  ( + T6 29 ) ) ( <= ( + T6 103 )( + T2 51 ) ) )
(or ( <= ( + T2 79 )  ( + T6 103 ) ) ( <= ( + T6 107 )( + T2 76 ) ) )
(or ( <= ( + T2 153 )  ( + T6 107 ) ) ( <= ( + T6 188 )( + T2 79 ) ) )
(or ( <= ( + T2 214 )  ( + T6 188 ) ) ( <= ( + T6 210 )( + T2 153 ) ) )
(or ( <= ( + T2 298 )  ( + T6 210 ) ) ( <= ( + T6 212 )( + T2 214 ) ) )
(or ( <= ( + T2 51 ) T7 ) ( <= ( + T7 92 ) T2 ) )
(or ( <= ( + T2 76 )  ( + T7 92 ) ) ( <= ( + T7 164 )( + T2 51 ) ) )
(or ( <= ( + T2 79 )  ( + T7 164 ) ) ( <= ( + T7 242 )( + T2 76 ) ) )
(or ( <= ( + T2 153 )  ( + T7 242 ) ) ( <= ( + T7 288 )( + T2 79 ) ) )
(or ( <= ( + T2 214 )  ( + T7 288 ) ) ( <= ( + T7 385 )( + T2 153 ) ) )
(or ( <= ( + T2 298 )  ( + T7 385 ) ) ( <= ( + T7 424 )( + T2 214 ) ) )
(or ( <= ( + T2 51 ) T8 ) ( <= ( + T8 29 ) T2 ) )
(or ( <= ( + T2 76 )  ( + T8 29 ) ) ( <= ( + T8 77 )( + T2 51 ) ) )
(or ( <= ( + T2 79 )  ( + T8 77 ) ) ( <= ( + T8 146 )( + T2 76 ) ) )
(or ( <= ( + T2 153 )  ( + T8 146 ) ) ( <= ( + T8 236 )( + T2 79 ) ) )
(or ( <= ( + T2 214 )  ( + T8 236 ) ) ( <= ( + T8 309 )( + T2 153 ) ) )
(or ( <= ( + T2 298 )  ( + T8 309 ) ) ( <= ( + T8 361 )( + T2 214 ) ) )
(or ( <= ( + T3 99 ) T4 ) ( <= ( + T4 70 ) T3 ) )
(or ( <= ( + T3 178 )  ( + T4 70 ) ) ( <= ( + T4 72 )( + T3 99 ) ) )
(or ( <= ( + T3 188 )  ( + T4 72 ) ) ( <= ( + T4 127 )( + T3 178 ) ) )
(or ( <= ( + T3 262 )  ( + T4 127 ) ) ( <= ( + T4 206 )( + T3 188 ) ) )
(or ( <= ( + T3 346 )  ( + T4 206 ) ) ( <= ( + T4 291 )( + T3 262 ) ) )
(or ( <= ( + T3 372 )  ( + T4 291 ) ) ( <= ( + T4 295 )( + T3 346 ) ) )
(or ( <= ( + T3 99 ) T5 ) ( <= ( + T5 72 ) T3 ) )
(or ( <= ( + T3 178 )  ( + T5 72 ) ) ( <= ( + T5 119 )( + T3 99 ) ) )
(or ( <= ( + T3 188 )  ( + T5 119 ) ) ( <= ( + T5 196 )( + T3 178 ) ) )
(or ( <= ( + T3 262 )  ( + T5 196 ) ) ( <= ( + T5 222 )( + T3 188 ) ) )
(or ( <= ( + T3 346 )  ( + T5 222 ) ) ( <= ( + T5 235 )( + T3 262 ) ) )
(or ( <= ( + T3 372 )  ( + T5 235 ) ) ( <= ( + T5 286 )( + T3 346 ) ) )
(or ( <= ( + T3 99 ) T6 ) ( <= ( + T6 29 ) T3 ) )
(or ( <= ( + T3 178 )  ( + T6 29 ) ) ( <= ( + T6 103 )( + T3 99 ) ) )
(or ( <= ( + T3 188 )  ( + T6 103 ) ) ( <= ( + T6 107 )( + T3 178 ) ) )
(or ( <= ( + T3 262 )  ( + T6 107 ) ) ( <= ( + T6 188 )( + T3 188 ) ) )
(or ( <= ( + T3 346 )  ( + T6 188 ) ) ( <= ( + T6 210 )( + T3 262 ) ) )
(or ( <= ( + T3 372 )  ( + T6 210 ) ) ( <= ( + T6 212 )( + T3 346 ) ) )
(or ( <= ( + T3 99 ) T7 ) ( <= ( + T7 92 ) T3 ) )
(or ( <= ( + T3 178 )  ( + T7 92 ) ) ( <= ( + T7 164 )( + T3 99 ) ) )
(or ( <= ( + T3 188 )  ( + T7 164 ) ) ( <= ( + T7 242 )( + T3 178 ) ) )
(or ( <= ( + T3 262 )  ( + T7 242 ) ) ( <= ( + T7 288 )( + T3 188 ) ) )
(or ( <= ( + T3 346 )  ( + T7 288 ) ) ( <= ( + T7 385 )( + T3 262 ) ) )
(or ( <= ( + T3 372 )  ( + T7 385 ) ) ( <= ( + T7 424 )( + T3 346 ) ) )
(or ( <= ( + T3 99 ) T8 ) ( <= ( + T8 29 ) T3 ) )
(or ( <= ( + T3 178 )  ( + T8 29 ) ) ( <= ( + T8 77 )( + T3 99 ) ) )
(or ( <= ( + T3 188 )  ( + T8 77 ) ) ( <= ( + T8 146 )( + T3 178 ) ) )
(or ( <= ( + T3 262 )  ( + T8 146 ) ) ( <= ( + T8 236 )( + T3 188 ) ) )
(or ( <= ( + T3 346 )  ( + T8 236 ) ) ( <= ( + T8 309 )( + T3 262 ) ) )
(or ( <= ( + T3 372 )  ( + T8 309 ) ) ( <= ( + T8 361 )( + T3 346 ) ) )
(or ( <= ( + T4 70 ) T5 ) ( <= ( + T5 72 ) T4 ) )
(or ( <= ( + T4 72 )  ( + T5 72 ) ) ( <= ( + T5 119 )( + T4 70 ) ) )
(or ( <= ( + T4 127 )  ( + T5 119 ) ) ( <= ( + T5 196 )( + T4 72 ) ) )
(or ( <= ( + T4 206 )  ( + T5 196 ) ) ( <= ( + T5 222 )( + T4 127 ) ) )
(or ( <= ( + T4 291 )  ( + T5 222 ) ) ( <= ( + T5 235 )( + T4 206 ) ) )
(or ( <= ( + T4 295 )  ( + T5 235 ) ) ( <= ( + T5 286 )( + T4 291 ) ) )
(or ( <= ( + T4 70 ) T6 ) ( <= ( + T6 29 ) T4 ) )
(or ( <= ( + T4 72 )  ( + T6 29 ) ) ( <= ( + T6 103 )( + T4 70 ) ) )
(or ( <= ( + T4 127 )  ( + T6 103 ) ) ( <= ( + T6 107 )( + T4 72 ) ) )
(or ( <= ( + T4 206 )  ( + T6 107 ) ) ( <= ( + T6 188 )( + T4 127 ) ) )
(or ( <= ( + T4 291 )  ( + T6 188 ) ) ( <= ( + T6 210 )( + T4 206 ) ) )
(or ( <= ( + T4 295 )  ( + T6 210 ) ) ( <= ( + T6 212 )( + T4 291 ) ) )
(or ( <= ( + T4 70 ) T7 ) ( <= ( + T7 92 ) T4 ) )
(or ( <= ( + T4 72 )  ( + T7 92 ) ) ( <= ( + T7 164 )( + T4 70 ) ) )
(or ( <= ( + T4 127 )  ( + T7 164 ) ) ( <= ( + T7 242 )( + T4 72 ) ) )
(or ( <= ( + T4 206 )  ( + T7 242 ) ) ( <= ( + T7 288 )( + T4 127 ) ) )
(or ( <= ( + T4 291 )  ( + T7 288 ) ) ( <= ( + T7 385 )( + T4 206 ) ) )
(or ( <= ( + T4 295 )  ( + T7 385 ) ) ( <= ( + T7 424 )( + T4 291 ) ) )
(or ( <= ( + T4 70 ) T8 ) ( <= ( + T8 29 ) T4 ) )
(or ( <= ( + T4 72 )  ( + T8 29 ) ) ( <= ( + T8 77 )( + T4 70 ) ) )
(or ( <= ( + T4 127 )  ( + T8 77 ) ) ( <= ( + T8 146 )( + T4 72 ) ) )
(or ( <= ( + T4 206 )  ( + T8 146 ) ) ( <= ( + T8 236 )( + T4 127 ) ) )
(or ( <= ( + T4 291 )  ( + T8 236 ) ) ( <= ( + T8 309 )( + T4 206 ) ) )
(or ( <= ( + T4 295 )  ( + T8 309 ) ) ( <= ( + T8 361 )( + T4 291 ) ) )
(or ( <= ( + T5 72 ) T6 ) ( <= ( + T6 29 ) T5 ) )
(or ( <= ( + T5 119 )  ( + T6 29 ) ) ( <= ( + T6 103 )( + T5 72 ) ) )
(or ( <= ( + T5 196 )  ( + T6 103 ) ) ( <= ( + T6 107 )( + T5 119 ) ) )
(or ( <= ( + T5 222 )  ( + T6 107 ) ) ( <= ( + T6 188 )( + T5 196 ) ) )
(or ( <= ( + T5 235 )  ( + T6 188 ) ) ( <= ( + T6 210 )( + T5 222 ) ) )
(or ( <= ( + T5 286 )  ( + T6 210 ) ) ( <= ( + T6 212 )( + T5 235 ) ) )
(or ( <= ( + T5 72 ) T7 ) ( <= ( + T7 92 ) T5 ) )
(or ( <= ( + T5 119 )  ( + T7 92 ) ) ( <= ( + T7 164 )( + T5 72 ) ) )
(or ( <= ( + T5 196 )  ( + T7 164 ) ) ( <= ( + T7 242 )( + T5 119 ) ) )
(or ( <= ( + T5 222 )  ( + T7 242 ) ) ( <= ( + T7 288 )( + T5 196 ) ) )
(or ( <= ( + T5 235 )  ( + T7 288 ) ) ( <= ( + T7 385 )( + T5 222 ) ) )
(or ( <= ( + T5 286 )  ( + T7 385 ) ) ( <= ( + T7 424 )( + T5 235 ) ) )
(or ( <= ( + T5 72 ) T8 ) ( <= ( + T8 29 ) T5 ) )
(or ( <= ( + T5 119 )  ( + T8 29 ) ) ( <= ( + T8 77 )( + T5 72 ) ) )
(or ( <= ( + T5 196 )  ( + T8 77 ) ) ( <= ( + T8 146 )( + T5 119 ) ) )
(or ( <= ( + T5 222 )  ( + T8 146 ) ) ( <= ( + T8 236 )( + T5 196 ) ) )
(or ( <= ( + T5 235 )  ( + T8 236 ) ) ( <= ( + T8 309 )( + T5 222 ) ) )
(or ( <= ( + T5 286 )  ( + T8 309 ) ) ( <= ( + T8 361 )( + T5 235 ) ) )
(or ( <= ( + T6 29 ) T7 ) ( <= ( + T7 92 ) T6 ) )
(or ( <= ( + T6 103 )  ( + T7 92 ) ) ( <= ( + T7 164 )( + T6 29 ) ) )
(or ( <= ( + T6 107 )  ( + T7 164 ) ) ( <= ( + T7 242 )( + T6 103 ) ) )
(or ( <= ( + T6 188 )  ( + T7 242 ) ) ( <= ( + T7 288 )( + T6 107 ) ) )
(or ( <= ( + T6 210 )  ( + T7 288 ) ) ( <= ( + T7 385 )( + T6 188 ) ) )
(or ( <= ( + T6 212 )  ( + T7 385 ) ) ( <= ( + T7 424 )( + T6 210 ) ) )
(or ( <= ( + T6 29 ) T8 ) ( <= ( + T8 29 ) T6 ) )
(or ( <= ( + T6 103 )  ( + T8 29 ) ) ( <= ( + T8 77 )( + T6 29 ) ) )
(or ( <= ( + T6 107 )  ( + T8 77 ) ) ( <= ( + T8 146 )( + T6 103 ) ) )
(or ( <= ( + T6 188 )  ( + T8 146 ) ) ( <= ( + T8 236 )( + T6 107 ) ) )
(or ( <= ( + T6 210 )  ( + T8 236 ) ) ( <= ( + T8 309 )( + T6 188 ) ) )
(or ( <= ( + T6 212 )  ( + T8 309 ) ) ( <= ( + T8 361 )( + T6 210 ) ) )
(or ( <= ( + T7 92 ) T8 ) ( <= ( + T8 29 ) T7 ) )
(or ( <= ( + T7 164 )  ( + T8 29 ) ) ( <= ( + T8 77 )( + T7 92 ) ) )
(or ( <= ( + T7 242 )  ( + T8 77 ) ) ( <= ( + T8 146 )( + T7 164 ) ) )
(or ( <= ( + T7 288 )  ( + T8 146 ) ) ( <= ( + T8 236 )( + T7 242 ) ) )
(or ( <= ( + T7 385 )  ( + T8 236 ) ) ( <= ( + T8 309 )( + T7 288 ) ) )
(or ( <= ( + T7 424 )  ( + T8 309 ) ) ( <= ( + T8 361 )( + T7 385 ) ) )
( <= ( + T1 324 ) Z)
( <= ( + T2 298 ) Z)
( <= ( + T3 372 ) Z)
( <= ( + T4 295 ) Z)
( <= ( + T5 286 ) Z)
( <= ( + T6 212 ) Z)
( <= ( + T7 424 ) Z)
( <= ( + T8 361 ) Z)
( >= T1 0 )
( >= T2 0 )
( >= T3 0 )
( >= T4 0 )
( >= T5 0 )
( >= T6 0 )
( >= T7 0 )
( >= T8 0 )
) )
(minimize Z)
(check-sat)